1 1 2 0
1 -3 -4 0
1 5 -6 0
1 -7 8 0
1 7 -9 0
1 -2 -10 0
1 2 3 0
1 2 7 0
1 2 -11 0
1 -2 -12 0
1 -2 -5 0
1 4 -3 0
1 4 -1 0
1 -12 -13 0
1 12 2 0
1 -14 -15 0
1 -8 15 0
1 16 15 0
1 17 18 0
1 -19 15 0
1 -20 -21 0
1 -18 17 0
1 18 -20 0
1 -22 8 0
1 23 24 0
1 25 -26 0
1 25 27 0
1 25 -28 0
1 -29 26 0
1 29 30 0
1 29 -31 0
1 -32 33 0
1 32 -34 0
1 -32 -31 0
1 31 -33 0
1 -31 13 0
1 26 -35 0
1 -26 -36 0
1 -30 -28 0
1 37 -38 0
1 37 -39 0
1 37 -40 0
1 41 42 0
1 38 -43 0
1 -38 -44 0
1 11 -17 0
1 -11 -45 0
1 46 47 0
1 -46 -19 0
1 -48 -6 0
1 -49 50 0
1 40 -51 0
1 -40 37 0
1 -39 -52 0
1 -39 53 0
1 -54 6 0
1 54 -22 0
1 54 -55 0
1 -56 16 0
1 56 -22 0
1 50 -49 0
1 -55 57 0
1 55 50 0
1 58 -59 0
1 58 51 0
1 21 60 0
1 -21 58 0
1 -21 -61 0
1 -62 -63 0
1 62 64 0
1 65 21 0
1 66 67 0
1 66 -58 0
1 66 -68 0
1 59 67 0
1 69 70 0
1 -71 72 0
1 71 62 0
1 -73 74 0
1 -73 75 0
1 76 73 0
1 27 77 0
1 -78 -79 0
1 -80 36 0
1 -80 81 0
1 -82 -35 0
1 81 83 0
1 81 -84 0
1 -81 -85 0
1 -84 -86 0
1 -84 -78 0
1 84 -77 0
1 -87 -88 0
1 -87 79 0
1 89 -34 0
1 -89 -90 0
1 -89 -82 0
1 91 92 0
1 -91 93 0
1 -35 94 0
1 35 -91 0
1 -35 90 0
1 -79 95 0
1 -90 96 0
1 92 -97 0
1 98 31 0
1 -99 100 0
1 -99 101 0
1 102 103 0
1 -104 -105 0
1 -104 -38 0
1 -104 93 0
1 -104 106 0
1 107 -108 0
1 100 -42 0
1 44 -107 0
1 44 54 0
1 -44 106 0
1 44 39 0
1 42 -109 0
1 -42 106 0
1 52 107 0
1 -52 -110 0
1 -111 112 0
1 106 51 0
1 -106 52 0
1 113 -42 0
1 -109 -114 0
1 109 44 0
1 51 115 0
1 -116 117 0
1 116 -118 0
1 119 43 0
1 119 120 0
1 119 121 0
1 110 -119 0
1 -110 64 0
1 110 122 0
1 -43 -123 0
1 -43 -124 0
1 117 51 0
1 67 -53 0
1 125 66 0
1 -126 -75 0
1 -126 127 0
1 -126 -110 0
1 128 110 0
1 -128 124 0
1 -129 -49 0
1 -130 131 0
1 -53 -132 0
1 -133 134 0
1 -133 -135 0
1 -136 -137 0
1 -138 -131 0
1 139 -140 0
1 74 -76 0
1 -74 -63 0
1 -141 -137 0
1 -137 142 0
1 137 135 0
1 -135 133 0
1 -135 143 0
1 135 -144 0
1 -145 72 0
1 145 135 0
1 146 -131 0
1 -147 146 0
1 144 148 0
1 149 -144 0
1 -150 135 0
1 -151 150 0
1 142 152 0
1 153 -152 0
1 153 154 0
1 155 156 0
1 -155 144 0
1 157 158 0
1 159 -160 0
1 -159 78 0
1 158 161 0
1 158 88 0
1 158 159 0
1 -162 157 0
1 -88 84 0
1 88 -160 0
1 -88 81 0
1 88 87 0
1 161 162 0
1 -163 164 0
1 163 -158 0
1 165 -164 0
1 -166 -167 0
1 166 159 0
1 168 -167 0
1 105 169 0
1 -170 105 0
1 164 -97 0
1 164 163 0
1 164 -171 0
1 172 -173 0
1 -172 -174 0
1 175 -176 0
1 -175 174 0
1 -175 177 0
1 -178 -97 0
1 -179 -180 0
1 -181 -182 0
1 183 184 0
1 185 186 0
1 83 103 0
1 86 178 0
1 -108 -182 0
1 108 -174 0
1 -118 182 0
1 118 187 0
1 118 116 0
1 -121 183 0
1 188 121 0
1 -188 189 0
1 -95 188 0
1 -180 190 0
1 180 -191 0
1 182 -190 0
1 114 -117 0
1 192 -193 0
1 127 -194 0
1 124 195 0
1 124 95 0
1 196 -197 0
1 196 -198 0
1 199 124 0
1 193 197 0
1 -193 192 0
1 189 -200 0
1 189 -193 0
1 123 115 0
1 132 123 0
1 132 -120 0
1 201 53 0
1 -134 199 0
1 -112 -202 0
1 -112 203 0
1 -204 -197 0
1 -204 113 0
1 204 -205 0
1 -204 134 0
1 204 -124 0
1 -194 109 0
1 -206 207 0
1 -206 208 0
1 -206 209 0
1 206 139 0
1 -140 210 0
1 140 211 0
1 -212 -203 0
1 212 -137 0
1 -212 213 0
1 214 215 0
1 209 216 0
1 209 -215 0
1 -209 -140 0
1 -209 134 0
1 -210 -208 0
1 -210 217 0
1 208 -206 0
1 208 -210 0
1 -208 -218 0
1 -148 -136 0
1 -219 -138 0
1 -219 -220 0
1 219 221 0
1 219 146 0
1 222 221 0
1 222 -223 0
1 -222 224 0
1 215 224 0
1 221 -225 0
1 -213 -226 0
1 213 -203 0
1 220 227 0
1 -220 -228 0
1 -220 -229 0
1 228 -212 0
1 -228 -148 0
1 -143 230 0
1 -143 -155 0
1 -156 145 0
1 231 -232 0
1 -231 233 0
1 -232 -224 0
1 -223 -234 0
1 -223 143 0
1 -230 215 0
1 -230 226 0
1 -152 -232 0
1 235 236 0
1 -237 -135 0
1 -237 -238 0
1 -239 236 0
1 240 241 0
1 242 -243 0
1 -244 245 0
1 244 -169 0
1 -246 -245 0
1 -246 247 0
1 246 248 0
1 -173 175 0
1 -249 250 0
1 -251 252 0
1 251 246 0
1 -251 177 0
1 251 253 0
1 245 244 0
1 -245 -177 0
1 -248 -245 0
1 174 254 0
1 -171 175 0
1 171 164 0
1 252 -121 0
1 252 83 0
1 250 -255 0
1 -250 -256 0
1 254 -173 0
1 257 -173 0
1 -257 -174 0
1 247 171 0
1 256 258 0
1 259 183 0
1 259 -83 0
1 -260 -257 0
1 195 184 0
1 261 262 0
1 -261 186 0
1 261 -252 0
1 176 263 0
1 190 -264 0
1 -265 -264 0
1 265 184 0
1 -265 266 0
1 200 -267 0
1 -200 268 0
1 -200 189 0
1 -184 -183 0
1 -269 200 0
1 -197 199 0
1 -270 -194 0
1 271 -267 0
1 271 272 0
1 266 -273 0
1 -272 -273 0
1 -268 -265 0
1 268 -182 0
1 -274 -210 0
1 274 272 0
1 218 275 0
1 -198 -196 0
1 198 -216 0
1 275 276 0
1 275 -218 0
1 -277 278 0
1 -217 -279 0
1 -217 -228 0
1 216 -280 0
1 216 -214 0
1 -229 -281 0
1 -229 275 0
1 -229 279 0
1 276 198 0
1 276 231 0
1 282 -283 0
1 -205 -284 0
1 -226 152 0
1 -285 221 0
1 -285 -223 0
1 285 -226 0
1 286 -287 0
1 288 -226 0
1 288 229 0
1 288 289 0
1 281 290 0
1 291 292 0
1 291 293 0
1 292 -233 0
1 292 293 0
1 -294 -295 0
1 296 -291 0
1 227 294 0
1 227 287 0
1 287 -286 0
1 287 228 0
1 -263 257 0
1 263 -297 0
1 263 256 0
1 -258 -263 0
1 298 299 0
1 297 258 0
1 -253 -300 0
1 301 -245 0
1 -301 302 0
1 -303 299 0
1 -303 -261 0
1 304 264 0
1 304 -299 0
1 300 305 0
1 -300 -253 0
1 -300 306 0
1 306 298 0
1 306 -256 0
1 -307 -308 0
1 -309 -310 0
1 -311 312 0
1 -312 -313 0
1 -305 -314 0
1 -315 -311 0
1 -315 -316 0
1 317 -176 0
1 -317 -318 0
1 -280 216 0
1 280 -319 0
1 280 -320 0
1 321 -277 0
1 321 -322 0
1 -321 278 0
1 -314 -276 0
1 -314 323 0
1 314 324 0
1 -325 311 0
1 -326 -327 0
1 326 -328 0
1 329 277 0
1 329 -325 0
1 330 -329 0
1 -330 324 0
1 -284 -331 0
1 324 332 0
1 322 284 0
1 -322 -329 0
1 -322 -321 0
1 -322 -333 0
1 -334 335 0
1 -334 -284 0
1 336 -337 0
1 336 330 0
1 -336 -334 0
1 336 -321 0
1 -290 -338 0
1 290 -339 0
1 -338 -340 0
1 -332 -281 0
1 331 277 0
1 331 341 0
1 -341 -338 0
1 342 -306 0
1 -323 -314 0
1 -343 -344 0
1 -343 -253 0
1 -302 323 0
1 302 345 0
1 -316 305 0
1 344 -343 0
1 -346 -328 0
1 -346 347 0
1 -346 284 0
1 -346 -348 0
1 328 -346 0
1 -349 -316 0
1 350 -316 0
1 347 328 0
1 -347 -346 0
1 -351 -323 0
1 351 -346 0
1 352 -349 0
1 327 338 0
1 327 -318 0
1 327 348 0
1 -348 346 0
1 -318 353 0
